BAYES
144
2 2 2 2 2 2 2 2 2 2 2 2 2 2 2 2 2 2 2 2 2 2 2 2 2 2 2 2 2 2 2 2 2 2 2 2 2 2 2 2 2 2 2 2 2 2 2 2 2 2 2 2 2 2 2 2 2 2 2 2 2 2 2 2 2 2 2 2 2 2 2 2 2 2 2 2 2 2 2 2 2 2 2 2 2 2 2 2 2 2 2 2 2 2 2 2 2 2 2 2 2 2 2 2 2 2 2 2 2 2 2 2 2 2 2 2 2 2 2 2 2 2 2 2 2 2 2 2 2 2 2 2 2 2 2 2 2 2 2 2 2 2 2 2
144
1 0
2 0 1
2 1 2
2 2 3
2 3 4
2 4 5
2 5 6
2 6 7
2 7 8
2 8 9
2 9 10
2 10 11
2 0 12
3 1 12 13
3 2 13 14
3 3 14 15
3 4 15 16
3 5 16 17
3 6 17 18
3 7 18 19
3 8 19 20
3 9 20 21
3 10 21 22
3 11 22 23
2 12 24
3 13 24 25
3 14 25 26
3 15 26 27
3 16 27 28
3 17 28 29
3 18 29 30
3 19 30 31
3 20 31 32
3 21 32 33
3 22 33 34
3 23 34 35
2 24 36
3 25 36 37
3 26 37 38
3 27 38 39
3 28 39 40
3 29 40 41
3 30 41 42
3 31 42 43
3 32 43 44
3 33 44 45
3 34 45 46
3 35 46 47
2 36 48
3 37 48 49
3 38 49 50
3 39 50 51
3 40 51 52
3 41 52 53
3 42 53 54
3 43 54 55
3 44 55 56
3 45 56 57
3 46 57 58
3 47 58 59
2 48 60
3 49 60 61
3 50 61 62
3 51 62 63
3 52 63 64
3 53 64 65
3 54 65 66
3 55 66 67
3 56 67 68
3 57 68 69
3 58 69 70
3 59 70 71
2 60 72
3 61 72 73
3 62 73 74
3 63 74 75
3 64 75 76
3 65 76 77
3 66 77 78
3 67 78 79
3 68 79 80
3 69 80 81
3 70 81 82
3 71 82 83
2 72 84
3 73 84 85
3 74 85 86
3 75 86 87
3 76 87 88
3 77 88 89
3 78 89 90
3 79 90 91
3 80 91 92
3 81 92 93
3 82 93 94
3 83 94 95
2 84 96
3 85 96 97
3 86 97 98
3 87 98 99
3 88 99 100
3 89 100 101
3 90 101 102
3 91 102 103
3 92 103 104
3 93 104 105
3 94 105 106
3 95 106 107
2 96 108
3 97 108 109
3 98 109 110
3 99 110 111
3 100 111 112
3 101 112 113
3 102 113 114
3 103 114 115
3 104 115 116
3 105 116 117
3 106 117 118
3 107 118 119
2 108 120
3 109 120 121
3 110 121 122
3 111 122 123
3 112 123 124
3 113 124 125
3 114 125 126
3 115 126 127
3 116 127 128
3 117 128 129
3 118 129 130
3 119 130 131
2 120 132
3 121 132 133
3 122 133 134
3 123 134 135
3 124 135 136
3 125 136 137
3 126 137 138
3 127 138 139
3 128 139 140
3 129 140 141
3 130 141 142
3 131 142 143
2
0 1
4
0 1 0 1
4
0.21059795096572015 0.7894020490342799 0.07286069488847077 0.9271393051115292
4
0 1 0 1
4
0 1 1 0
4
1 0 0 1
4
0 1 1 0
4
0 1 0 1
4
0 1 0 1
4
0 1 0 1
4
0.5416455355627644 0.45835446443723554 0.645737943545331 0.35426205645466907
4
1 0 0 1
4
1 0 0 1
8
0 1 1 0 1 0 0 1
8
1 0 1 0 1 0 1 0
8
1 0 0 1 0 1 0 1
8
1 0 0 1 0 1 1 0
8
0 1 0 1 1 0 0 1
8
0 1 0 1 1 0 0 1
8
1 0 1 0 0 1 1 0
8
1 0 0 1 1 0 0 1
8
0.8359632925220668 0.16403670747793334 0.539405396586617 0.46059460341338304 0.8622786837439192 0.13772131625608072 0.44654092355903346 0.5534590764409666
8
0 1 0 1 1 0 0 1
8
1 0 1 0 0 1 1 0
4
0.40714320128272763 0.5928567987172724 0.39892022877543365 0.6010797712245664
8
1 0 1 0 1 0 1 0
8
0.03420150140396853 0.9657984985960315 0.7240637672897188 0.2759362327102812 0.8645244875236482 0.13547551247635184 0.9925771027940851 0.007422897205914936
8
1 0 1 0 0 1 1 0
8
0.6157097424450992 0.38429025755490076 0.46475958455826866 0.5352404154417314 0.41725118974300435 0.5827488102569957 0.38452587454585474 0.6154741254541453
8
0 1 0 1 1 0 1 0
8
0.5804527631089608 0.41954723689103923 0.4679572640657645 0.5320427359342355 0.38794285236563963 0.6120571476343603 0.18994029967326673 0.8100597003267332
8
1 0 0 1 1 0 0 1
8
0 1 0 1 0 1 0 1
8
1 0 0 1 1 0 1 0
8
0 1 0 1 0 1 0 1
8
0 1 1 0 1 0 0 1
4
1 0 0 1
8
0 1 1 0 0 1 1 0
8
0 1 0 1 1 0 1 0
8
0 1 1 0 0 1 0 1
8
0 1 1 0 1 0 0 1
8
0 1 1 0 1 0 0 1
8
0 1 1 0 1 0 1 0
8
0 1 0 1 1 0 1 0
8
0 1 1 0 0 1 1 0
8
1 0 1 0 1 0 0 1
8
0.3976128233315836 0.6023871766684165 0.03393184180486514 0.9660681581951349 0.44523192312154314 0.5547680768784569 0.8320207028286973 0.16797929717130272
8
0 1 0 1 0 1 1 0
4
0.10338603836774249 0.8966139616322575 0.5922725358132427 0.40772746418675726
8
0 1 0 1 0 1 1 0
8
0 1 0 1 1 0 1 0
8
1 0 0 1 1 0 0 1
8
0 1 0 1 1 0 1 0
8
1 0 0 1 0 1 1 0
8
0 1 0 1 0 1 0 1
8
0 1 0 1 1 0 1 0
8
0 1 0 1 1 0 1 0
8
0 1 0 1 1 0 1 0
8
0 1 1 0 0 1 1 0
8
0 1 1 0 1 0 1 0
4
1 0 0 1
8
0 1 1 0 1 0 1 0
8
0 1 1 0 1 0 0 1
8
0 1 1 0 0 1 1 0
8
0 1 1 0 0 1 0 1
8
0 1 0 1 1 0 0 1
8
1 0 0 1 0 1 1 0
8
1 0 0 1 0 1 0 1
8
0 1 1 0 0 1 1 0
8
1 0 0 1 1 0 1 0
8
1 0 0 1 1 0 0 1
8
0 1 1 0 0 1 0 1
4
0 1 0 1
8
1 0 0 1 0 1 0 1
8
0 1 0 1 0 1 0 1
8
0 1 1 0 1 0 1 0
8
0 1 1 0 0 1 0 1
8
0 1 1 0 1 0 0 1
8
0 1 1 0 0 1 0 1
8
1 0 0 1 0 1 1 0
8
0 1 1 0 1 0 1 0
8
1 0 0 1 1 0 1 0
8
0 1 0 1 0 1 0 1
8
0 1 0 1 1 0 1 0
4
0 1 1 0
8
0 1 1 0 1 0 0 1
8
1 0 0 1 0 1 1 0
8
1 0 1 0 1 0 0 1
8
0.5733625704483833 0.4266374295516168 0.4722554590841225 0.5277445409158776 0.8439498940973882 0.1560501059026118 0.8520090732092895 0.1479909267907105
8
1 0 1 0 1 0 1 0
8
0 1 0 1 0 1 1 0
8
0 1 0 1 1 0 0 1
8
1 0 0 1 0 1 1 0
8
1 0 0 1 0 1 1 0
8
1 0 1 0 1 0 1 0
8
1 0 0 1 0 1 0 1
4
1 0 1 0
8
0 1 0 1 1 0 1 0
8
1 0 0 1 1 0 0 1
8
0 1 0 1 0 1 1 0
8
1 0 0 1 0 1 1 0
8
0 1 1 0 0 1 0 1
8
0 1 1 0 0 1 1 0
8
0 1 1 0 0 1 0 1
8
1 0 1 0 1 0 1 0
8
0 1 1 0 0 1 0 1
8
0.9601416265918603 0.03985837340813968 0.3997106458887474 0.6002893541112526 0.42605853901989577 0.5739414609801043 0.5711633550317186 0.42883664496828144
8
1 0 0 1 1 0 0 1
4
1 0 0 1
8
1 0 0 1 0 1 1 0
8
0.5993496053114213 0.40065039468857866 0.5326736052845897 0.46732639471541026 0.3815408295370073 0.6184591704629928 0.6884633904703794 0.31153660952962053
8
1 0 0 1 0 1 1 0
8
1 0 1 0 0 1 1 0
8
1 0 0 1 1 0 1 0
8
0 1 0 1 0 1 0 1
8
0 1 0 1 1 0 1 0
8
0 1 1 0 0 1 0 1
8
1 0 1 0 0 1 0 1
8
1 0 1 0 0 1 0 1
8
0 1 1 0 1 0 0 1
4
0 1 1 0
8
0.4509608626136797 0.5490391373863204 0.6201241524861878 0.37987584751381226 0.6200525695721086 0.37994743042789136 0.8318757522230018 0.16812424777699822
8
0 1 0 1 0 1 1 0
8
0 1 0 1 1 0 1 0
8
0 1 1 0 0 1 1 0
8
1 0 1 0 0 1 0 1
8
1 0 0 1 0 1 0 1
8
1 0 0 1 1 0 0 1
8
0 1 1 0 1 0 0 1
8
0 1 1 0 1 0 1 0
8
1 0 0 1 0 1 1 0
8
0 1 1 0 1 0 1 0
4
0.28569031505909503 0.714309684940905 0.5215711930710365 0.47842880692896356
8
0.5041194930262103 0.4958805069737897 0.5505894276712563 0.44941057232874376 0.2634265914690661 0.7365734085309338 0.6417772633343823 0.3582227366656176
8
0 1 1 0 0 1 1 0
8
0 1 0 1 1 0 0 1
8
1 0 0 1 1 0 1 0
8
0 1 1 0 0 1 1 0
8
1 0 1 0 1 0 0 1
8
0 1 0 1 0 1 0 1
8
1 0 0 1 0 1 0 1
8
1 0 1 0 1 0 1 0
8
0 1 1 0 0 1 0 1
8
1 0 1 0 1 0 1 0
